% number of games is 44

num = 44;
cap = 5;
refill = 2;
fun = [10, -13, -4, 10, -19, 13, -12, 14, 9, -9, -6, 8, 8, -5, -1, -11, 13, -3, 12, -7, 2, 11, 18, -13, -8, 14, -4, -10, 10, -12, 0, -8, 7, 12, -12, -6, -13, 2, 3, -5, -4, -1, 19, 15];
